NAME : problems/40-tsp/instance-34.tsp
COMMENT : No Comment
TYPE : TSP
DIMENSION: 40
EDGE_WEIGHT_TYPE : EUC_2D
NODE_COORD_SECTION
1 7578 2702 
2 3405 2893 
3 7084 677 
4 7929 4096 
5 983 1612 
6 6072 811 
7 2990 9648 
8 3675 9294 
9 3399 4696 
10 8144 1442 
11 2769 8244 
12 8462 8628 
13 1905 976 
14 1893 6721 
15 6382 3639 
16 5044 5231 
17 3771 5078 
18 5615 2259 
19 1034 3915 
20 6045 6386 
21 2739 9210 
22 833 6960 
23 6735 2634 
24 5973 3550 
25 7070 2865 
26 2398 9119 
27 3521 1895 
28 2785 8555 
29 7912 3194 
30 9668 7038 
31 5380 3869 
32 176 1194 
33 4973 9220 
34 3109 2151 
35 1553 4171 
36 7339 1879 
37 8827 2728 
38 9420 3466 
39 8241 4304 
40 3375 9775 
EOF
